40723 39000 
40652 39058 
40516 39138 
38416 40601 
37690 41011 
39485 39992 
39314 40022 
38660 40563 
38058 40850 
37652 41042 
38444 40591 
36998 41184 
37417 41054 
39226 40079 
36763 41196 
36493 41305 
35708 41359 
36614 41273 
36258 41317 
34525 41382 
